\* Problem: Unknown *\

Maximize
 obj: + xp_0_0 + xp_0_1 + xp_0_2 + xp_0_3 + xp_0_4 + xp_0_5 + xp_1_0
 + xp_1_1 + xp_2_0 + xp_2_1 + xp_2_2 + xp_2_3 + xp_3_0 + xp_3_1 + xp_4_0
 + xp_4_1 + xp_5_0 + xp_5_1 + xp_6_0 + xp_7_0 + xp_8_0 + xp_9_0
 + xp_10_0 + xp_10_1 + xp_11_0 + xp_11_1 + xp_11_2 + xp_11_3 + xp_12_0
 + xp_13_0 + xp_13_1 + xp_14_0 + xp_14_1 + xp_15_0 + xp_16_0 + xp_16_1
 + xp_17_0 + xp_17_1 + xp_17_2 + xp_17_3 + xp_17_4 + xp_17_5 + xp_18_0
 + xp_18_1 + xp_18_2 + xp_18_3 + xp_19_0 + xp_19_1 + xp_19_2 + xp_19_3
 + xp_20_0 + xp_20_1 + xp_20_2 + xp_20_3 + xp_21_0 + xp_21_1 + xp_21_2
 + xp_21_3 + xp_22_0 + xp_22_1 + xp_22_2 + xp_22_3 + xp_22_4 + xp_23_0
 + xp_23_1 + xp_23_2 + xp_23_3

Subject To
 r_1: 0 xp_0_0 <= 30
 r_2: + xp_23_3 + xp_18_2 + xp_17_5 + xp_2_2 <= 30
 r_3: + xp_21_2 + xp_18_3 + xp_17_4 <= 30
 r_4: + xp_17_2 + xp_15_0 <= 30
 r_5: + xp_18_0 <= 28.8106343283582
 r_6: + xp_18_1 <= 30
 r_7: + xp_20_1 <= 30
 r_8: + xp_23_2 + xp_22_3 + xp_11_1 + xp_5_1 + xp_2_3 <= 30
 r_9: + xp_22_4 + xp_11_3 + xp_3_1 <= 30
 r_10: + xp_3_0 <= 30
 r_11: + xp_18_1 + xp_11_2 <= 28.8106343283582
 r_12: + xp_11_0 <= 30
 r_13: 0 xp_0_0 <= 30
 r_14: + xp_14_0 + xp_4_1 + xp_0_3 + xp_0_1 <= 30
 r_15: + xp_21_0 + xp_19_1 <= 30
 r_16: + xp_22_1 + xp_21_1 + xp_0_5 + xp_0_4 + xp_0_2 <= 30
 r_17: + xp_0_0 <= 28.8106343283582
 r_18: + xp_21_2 + xp_4_0 <= 30
 r_19: + xp_19_0 <= 30
 r_20: + xp_21_3 + xp_19_3 + xp_19_2 + xp_14_1 <= 30
 r_21: + xp_20_2 <= 30
 r_22: + xp_21_3 <= 30
 r_23: + xp_22_3 + xp_22_2 + xp_17_5 <= 30
 r_24: + xp_23_3 + xp_23_2 + xp_0_3 <= 30
 r_25: 0 xp_0_0 <= 30
 r_26: + xp_18_2 + xp_0_1 <= 28.8106343283582
 r_27: + xp_11_1 + xp_4_1 <= 30
 r_28: + xp_19_2 + xp_10_1 <= 30
 r_29: + xp_20_3 <= 30
 r_30: + xp_2_0 <= 30
 r_31: + xp_22_4 + xp_18_3 + xp_17_4 + xp_3_1 <= 30
 r_32: + xp_2_1 <= 30
 r_33: + xp_11_3 + xp_2_2 <= 30
 r_34: + xp_19_1 + xp_2_3 <= 30
 r_35: 0 xp_0_0 <= 30
 r_36: + xp_9_0 <= 30
 r_37: + xp_21_1 + xp_13_1 + xp_0_5 <= 30
 r_38: + xp_1_1 <= 30
 r_39: + xp_17_5 + xp_17_3 + xp_0_4 <= 30
 r_40: + xp_0_2 <= 28.8106343283582
 r_41: + xp_12_0 <= 30
 r_42: + xp_21_1 <= 30
 r_43: + xp_22_4 + xp_16_0 <= 30
 r_44: + xp_23_3 + xp_23_2 + xp_23_1 + xp_16_1 <= 30
 r_45: + xp_17_4 + xp_3_1 <= 30
 r_46: + xp_18_3 + xp_0_5 + xp_0_3 <= 28.8106343283582
 r_47: + xp_16_1 + xp_13_1 <= 30
 r_48: + xp_13_0 <= 30
 r_49: + xp_17_1 <= 30
 r_50: 0 xp_0_0 <= 28.8106343283582
 r_51: + xp_1_1 <= 30
 r_52: + xp_8_0 <= 30
 r_53: + xp_1_0 <= 30
 r_54: + xp_0_4 <= 28.8106343283582
 r_55: 0 xp_0_0 <= 30
 r_56: 0 xp_0_0 <= 30
 r_57: + xp_22_1 <= 28.8106343283582
 r_58: + xp_22_2 + xp_5_0 <= 28.8106343283582
 r_59: + xp_22_0 + xp_17_3 <= 28.8106343283582
 r_60: + xp_23_1 + xp_6_0 <= 28.8106343283582
 r_61: + xp_23_0 + xp_17_1 <= 28.8106343283582
 r_62: + xp_17_0 <= 28.8106343283582
 r_63: + xp_23_3 + xp_17_5 + xp_17_4 + xp_17_2 + xp_11_2
 <= 28.8106343283582
 r_64: + xp_23_2 + xp_22_4 + xp_22_3 + xp_5_1 <= 28.8106343283582
 r_65: + xp_21_3 + xp_20_2 + xp_19_2 + xp_14_1 + xp_10_1 + xp_2_1 <= 30
 r_66: + xp_20_3 + xp_7_0 <= 30
 r_67: + xp_20_1 + xp_19_3 + xp_10_0 <= 30
 r_68: + xp_20_0 <= 30

Bounds
 0 <= xp_0_0 <= 28.2131882467716
 0 <= xp_0_1 <= 8.58484232364774
 0 <= xp_0_2 <= 13.4214216029413
 0 <= xp_0_3 <= 2.74069008177821
 0 <= xp_0_4 <= 4.47380720098042
 0 <= xp_0_5 <= 4.47380720098042
 0 <= xp_1_0 <= 18.6341228012356
 0 <= xp_1_1 <= 16.0277722020884
 0 <= xp_2_0 <= 23.5916022463284
 0 <= xp_2_1 <= 4.47380720098042
 0 <= xp_2_2 <= 4.89026496570529
 0 <= xp_2_3 <= 1.22256624142632
 0 <= xp_3_0 <= 24.8275988569721
 0 <= xp_3_1 <= 6.93237005305041
 0 <= xp_4_0 <= 21.4957488392707
 0 <= xp_4_1 <= 4.29914976785414
 0 <= xp_5_0 <= 21.4957488392707
 0 <= xp_5_1 <= 4.29914976785414
 0 <= xp_6_0 <= 23.2154087464124
 0 <= xp_7_0 <= 22.2481000486452
 0 <= xp_8_0 <= 19.9910464205218
 0 <= xp_9_0 <= 18.540083373871
 0 <= xp_10_0 <= 15.4500694782258
 0 <= xp_10_1 <= 3.09001389564517
 0 <= xp_11_0 <= 22.3690360049021
 0 <= xp_11_1 <= 8.94761440196084
 0 <= xp_11_2 <= 8.94761440196084
 0 <= xp_11_3 <= 13.4214216029413
 0 <= xp_12_0 <= 17.4115565598093
 0 <= xp_13_0 <= 14.1065851757714
 0 <= xp_13_1 <= 2.82131703515428
 0 <= xp_14_0 <= 10.7478744196354
 0 <= xp_14_1 <= 5.37393720981768
 0 <= xp_15_0 <= 15.9605935131585
 0 <= xp_16_0 <= 12.763100873317
 0 <= xp_16_1 <= 2.5526201746634
 0 <= xp_17_0 <= 28.3609670462344
 0 <= xp_17_1 <= 2.99596552066616
 0 <= xp_17_2 <= 2.99596552066616
 0 <= xp_17_3 <= 4.47380720098042
 0 <= xp_17_4 <= 2.99596552066616
 0 <= xp_17_5 <= 2.99596552066616
 0 <= xp_18_0 <= 23.2422873800759
 0 <= xp_18_1 <= 12.4943950652117
 0 <= xp_18_2 <= 4.47380720098042
 0 <= xp_18_3 <= 2.6735292880771
 0 <= xp_19_0 <= 29.4357634358123
 0 <= xp_19_1 <= 7.77876068978949
 0 <= xp_19_2 <= 2.59292022992983
 0 <= xp_19_3 <= 2.59292022992983
 0 <= xp_20_0 <= 27.2861796042709
 0 <= xp_20_1 <= 6.93237900066481
 0 <= xp_20_2 <= 2.45857179968439
 0 <= xp_20_3 <= 4.91714359936878
 0 <= xp_21_0 <= 22.2212393102105
 0 <= xp_21_1 <= 4.32601050628883
 0 <= xp_21_2 <= 6.63681245412484
 0 <= xp_21_3 <= 6.63681245412484
 0 <= xp_22_0 <= 23.5781539818823
 0 <= xp_22_1 <= 1.89430839265353
 0 <= xp_22_2 <= 4.47380720098042
 0 <= xp_22_3 <= 6.36811559363395
 0 <= xp_22_4 <= 1.89430839265353
 0 <= xp_23_0 <= 26.1576527902092
 0 <= xp_23_1 <= 6.36811559363395
 0 <= xp_23_2 <= 1.89430839265353
 0 <= xp_23_3 <= 3.78861678530706

End
